NAME : LPS-n8-m305
COMMENT : (Lartu-Peter-Santi Plot, instance 2305 out of 39200. 8 customers.)
TYPE : CVRP
DIMENSION : 8
EDGE_WEIGHT_TYPE : EUC_2D
CAPACITY : 125
NODE_COORD_SECTION
 1 50 61
 2 64 83
 3 7 81
 4 25 84
 5 60 38
 6 27 94
 7 65 87
 8 71 9
DEMAND_SECTION
1 0
2 74
3 62
4 51
5 28
6 50
7 64
8 62
DEPOT_SECTION
 1
 -1
EOF
